139934
15,63,89,16,20,21,61,44,71,81,32,1,72,38,48,36,35,70,53,47,84,10,40,66,94,103,37,104,100,2,77,93,69,17,95,59,90,78,42,23,101,73,13,46,60,102,3,14,74,34,62,31,6,83,52,50,99,98,18,67,49,25,33,82,56,79,88,75,57,0,86,27,26,43,65,58,9,92,11,22,91,8,105,7,96,54,28,29,4,51,64,30,97,12,87,68,41,80,24,85,45,76,5,39,55,19
